\This file was automatically generated by zimpl
\Problem name: pep_M6S3P2T4.zpl
Minimize
 cost:  +14 x_6_3_#0 +88 x_6_3_#1 +90 x_6_3_#2 +74 x_6_3_#3 +73 x_6_3_#4 +87 x_6_3_#5
  +98 x_6_3_#6 +55 x_6_3_#7 +38 x_6_2_#8 +62 x_6_2_#9 +95 x_6_2#10 +76 x_6_2#11
  +21 x_6_2#12 +99 x_6_2#13 +39 x_6_2#14 +67 x_6_2#15 +35 x_5_2#16 +93 x_5_2#17
  +24 x_5_2#18 +30 x_5_2#19 +17 x_5_2#20 +77 x_5_2#21 +54 x_5_2#22 +49 x_5_2#23
  +40 x_5_1#24 +94 x_5_1#25 +82 x_5_1#26 +77 x_5_1#27 +76 x_5_1#28 +35 x_5_1#29
  +1 x_5_1#30 +93 x_5_1#31 +1 x_4_3#32 +75 x_4_3#33 +96 x_4_3#34 +79 x_4_3#35
  +57 x_4_3#36 +95 x_4_3#37 +41 x_4_3#38 +12 x_4_3#39 +38 x_4_2#40 +24 x_4_2#41
  +93 x_4_2#42 +54 x_4_2#43 +33 x_4_2#44 +54 x_4_2#45 +16 x_4_2#46 +65 x_4_2#47
  +1 x_3_2#48 +71 x_3_2#49 +86 x_3_2#50 +60 x_3_2#51 +71 x_3_2#52 +78 x_3_2#53
  +78 x_3_2#54 +31 x_3_2#55 +83 x_3_3#56 +25 x_3_3#57 +10 x_3_3#58 +83 x_3_3#59
  +89 x_3_3#60 +97 x_3_3#61 +90 x_3_3#62 +94 x_3_3#63 +52 x_2_1#64 +79 x_2_1#65
  +77 x_2_1#66 +100 x_2_1#67 +48 x_2_1#68 +33 x_2_1#69 +98 x_2_1#70 +66 x_2_1#71
  +41 x_2_2#72 +91 x_2_2#73 +69 x_2_2#74 +59 x_2_2#75 +31 x_2_2#76 +24 x_2_2#77
  +10 x_2_2#78 +52 x_2_2#79 +6 x_1_1#80 +12 x_1_1#81 +67 x_1_1#82 +48 x_1_1#83
  +48 x_1_1#84 +33 x_1_1#85 +30 x_1_1#86 +64 x_1_1#87 +75 x_1_3#88 +36 x_1_3#89
  +33 x_1_3#90 +43 x_1_3#91 +83 x_1_3#92 +55 x_1_3#93 +62 x_1_3#94 +11 x_1_3#95
 
Subject to
 bedarf_9:  +1 x_6_3_#0 +1 x_6_3_#1 +1 x_4_3#32 +1 x_4_3#33 +1 x_3_3#56 +1 x_3_3#57
  +1 x_1_3#88 +1 x_1_3#89 = 3
 bedarf_8:  +1 x_6_2_#8 +1 x_6_2_#9 +1 x_5_2#16 +1 x_5_2#17 +1 x_4_2#40 +1 x_4_2#41
  +1 x_3_2#48 +1 x_3_2#49 +1 x_2_2#72 +1 x_2_2#73 = 1
 bedarf_7:  +1 x_5_1#24 +1 x_5_1#25 +1 x_2_1#64 +1 x_2_1#65 +1 x_1_1#80 +1 x_1_1#81
  = 2
 bedarf_6:  +1 x_6_3_#2 +1 x_6_3_#3 +1 x_4_3#34 +1 x_4_3#35 +1 x_3_3#58 +1 x_3_3#59
  +1 x_1_3#90 +1 x_1_3#91 = 1
 bedarf_5:  +1 x_6_2#10 +1 x_6_2#11 +1 x_5_2#18 +1 x_5_2#19 +1 x_4_2#42 +1 x_4_2#43
  +1 x_3_2#50 +1 x_3_2#51 +1 x_2_2#74 +1 x_2_2#75 = 2
 bedarf_4:  +1 x_5_1#26 +1 x_5_1#27 +1 x_2_1#66 +1 x_2_1#67 +1 x_1_1#82 +1 x_1_1#83
  = 3
 bedarf_3:  +1 x_6_3_#5 +1 x_6_3_#6 +1 x_4_3#37 +1 x_4_3#38 +1 x_3_3#61 +1 x_3_3#62
  +1 x_1_3#93 +1 x_1_3#94 = 3
 bedarf_2:  +1 x_6_2#13 +1 x_6_2#14 +1 x_5_2#21 +1 x_5_2#22 +1 x_4_2#45 +1 x_4_2#46
  +1 x_3_2#53 +1 x_3_2#54 +1 x_2_2#77 +1 x_2_2#78 = 1
 bedarf_1:  +1 x_5_1#29 +1 x_5_1#30 +1 x_2_1#69 +1 x_2_1#70 +1 x_1_1#85 +1 x_1_1#86
  = 1
 auslas#9:  -1.2 x_4_3#32 -1.2 x_4_2#40 +1 x_6_3_#0 +1 x_6_2_#8 -1.2 x_4_3#33 -1.2 x_4_2#41
  +1 x_6_3_#1 +1 x_6_2_#9 -1.2 x_4_3#34 -1.2 x_4_2#42 +1 x_6_3_#2 +1 x_6_2#10
  -1.2 x_4_3#35 -1.2 x_4_2#43 +1 x_6_3_#3 +1 x_6_2#11 -1.2 x_4_3#36 -1.2 x_4_2#44
  +1 x_6_3_#4 +1 x_6_2#12 -1.2 x_4_3#37 -1.2 x_4_2#45 +1 x_6_3_#5 +1 x_6_2#13
  -1.2 x_4_3#38 -1.2 x_4_2#46 +1 x_6_3_#6 +1 x_6_2#14 -1.2 x_4_3#39 -1.2 x_4_2#47
  +1 x_6_3_#7 +1 x_6_2#15 <= 0
 ausla#10:  -1 x_6_3_#0 -1 x_6_2_#8 +1 x_4_3#32 +1 x_4_2#40 -1 x_6_3_#1 -1 x_6_2_#9
  +1 x_4_3#33 +1 x_4_2#41 -1 x_6_3_#2 -1 x_6_2#10 +1 x_4_3#34 +1 x_4_2#42
  -1 x_6_3_#3 -1 x_6_2#11 +1 x_4_3#35 +1 x_4_2#43 -1 x_6_3_#4 -1 x_6_2#12
  +1 x_4_3#36 +1 x_4_2#44 -1 x_6_3_#5 -1 x_6_2#13 +1 x_4_3#37 +1 x_4_2#45
  -1 x_6_3_#6 -1 x_6_2#14 +1 x_4_3#38 +1 x_4_2#46 -1 x_6_3_#7 -1 x_6_2#15
  +1 x_4_3#39 +1 x_4_2#47 <= 0
 einsa#11:  -4 x_6_3_#0 +1 x_6_2_#8 -4 x_6_3_#1 +1 x_6_2_#9 -4 x_6_3_#2 +1 x_6_2#10
  -4 x_6_3_#3 +1 x_6_2#11 -4 x_6_3_#4 +1 x_6_2#12 -4 x_6_3_#5 +1 x_6_2#13
  -4 x_6_3_#6 +1 x_6_2#14 -4 x_6_3_#7 +1 x_6_2#15 >= 0
 einsa#12:  -4 x_5_2#16 +1 x_5_1#24 -4 x_5_2#17 +1 x_5_1#25 -4 x_5_2#18 +1 x_5_1#26
  -4 x_5_2#19 +1 x_5_1#27 -4 x_5_2#20 +1 x_5_1#28 -4 x_5_2#21 +1 x_5_1#29
  -4 x_5_2#22 +1 x_5_1#30 -4 x_5_2#23 +1 x_5_1#31 >= 0
 einsa#13:  -4 x_4_3#32 +1 x_4_2#40 -4 x_4_3#33 +1 x_4_2#41 -4 x_4_3#34 +1 x_4_2#42
  -4 x_4_3#35 +1 x_4_2#43 -4 x_4_3#36 +1 x_4_2#44 -4 x_4_3#37 +1 x_4_2#45
  -4 x_4_3#38 +1 x_4_2#46 -4 x_4_3#39 +1 x_4_2#47 >= 0
 einsa#14:  -4 x_3_2#48 +1 x_3_3#56 -4 x_3_2#49 +1 x_3_3#57 -4 x_3_2#50 +1 x_3_3#58
  -4 x_3_2#51 +1 x_3_3#59 -4 x_3_2#52 +1 x_3_3#60 -4 x_3_2#53 +1 x_3_3#61
  -4 x_3_2#54 +1 x_3_3#62 -4 x_3_2#55 +1 x_3_3#63 >= 0
 einsa#15:  -4 x_2_1#64 +1 x_2_2#72 -4 x_2_1#65 +1 x_2_2#73 -4 x_2_1#66 +1 x_2_2#74
  -4 x_2_1#67 +1 x_2_2#75 -4 x_2_1#68 +1 x_2_2#76 -4 x_2_1#69 +1 x_2_2#77
  -4 x_2_1#70 +1 x_2_2#78 -4 x_2_1#71 +1 x_2_2#79 >= 0
 einsa#16:  -4 x_1_1#80 +1 x_1_3#88 -4 x_1_1#81 +1 x_1_3#89 -4 x_1_1#82 +1 x_1_3#90
  -4 x_1_1#83 +1 x_1_3#91 -4 x_1_1#84 +1 x_1_3#92 -4 x_1_1#85 +1 x_1_3#93
  -4 x_1_1#86 +1 x_1_3#94 -4 x_1_1#87 +1 x_1_3#95 >= 0
 fix_24:  +1 x_6_3_#4 = 0
 fix_23:  +1 x_6_3_#7 = 0
 fix_22:  +1 x_6_2#12 = 0
 fix_21:  +1 x_6_2#15 = 0
 fix_20:  +1 x_5_2#20 = 0
 fix_19:  +1 x_5_2#23 = 0
 fix_18:  +1 x_5_1#28 = 0
 fix_17:  +1 x_5_1#31 = 0
 fix_16:  +1 x_4_3#36 = 0
 fix_15:  +1 x_4_3#39 = 0
 fix_14:  +1 x_4_2#44 = 0
 fix_13:  +1 x_4_2#47 = 0
 fix_12:  +1 x_3_2#52 = 0
 fix_11:  +1 x_3_2#55 = 0
 fix_10:  +1 x_3_3#60 = 0
 fix_9:  +1 x_3_3#63 = 0
 fix_8:  +1 x_2_1#68 = 0
 fix_7:  +1 x_2_1#71 = 0
 fix_6:  +1 x_2_2#76 = 0
 fix_5:  +1 x_2_2#79 = 0
 fix_4:  +1 x_1_1#84 = 0
 fix_3:  +1 x_1_1#87 = 0
 fix_2:  +1 x_1_3#92 = 0
 fix_1:  +1 x_1_3#95 = 0
 limit_24:  +1 x_6_3_#0 +1 x_6_3_#4 +1 x_6_2_#8 +1 x_6_2#12 <= 3
 limit_23:  +1 x_6_3_#1 +1 x_6_3_#5 +1 x_6_2_#9 +1 x_6_2#13 <= 3
 limit_22:  +1 x_6_3_#2 +1 x_6_3_#6 +1 x_6_2#10 +1 x_6_2#14 <= 12
 limit_21:  +1 x_6_3_#3 +1 x_6_3_#7 +1 x_6_2#11 +1 x_6_2#15 <= 12
 limit_20:  +1 x_5_2#16 +1 x_5_2#20 +1 x_5_1#24 +1 x_5_1#28 <= 3
 limit_19:  +1 x_5_2#17 +1 x_5_2#21 +1 x_5_1#25 +1 x_5_1#29 <= 3
 limit_18:  +1 x_5_2#18 +1 x_5_2#22 +1 x_5_1#26 +1 x_5_1#30 <= 12
 limit_17:  +1 x_5_2#19 +1 x_5_2#23 +1 x_5_1#27 +1 x_5_1#31 <= 12
 limit_16:  +1 x_4_3#32 +1 x_4_3#36 +1 x_4_2#40 +1 x_4_2#44 <= 3
 limit_15:  +1 x_4_3#33 +1 x_4_3#37 +1 x_4_2#41 +1 x_4_2#45 <= 3
 limit_14:  +1 x_4_3#34 +1 x_4_3#38 +1 x_4_2#42 +1 x_4_2#46 <= 12
 limit_13:  +1 x_4_3#35 +1 x_4_3#39 +1 x_4_2#43 +1 x_4_2#47 <= 12
 limit_12:  +1 x_3_2#48 +1 x_3_2#52 +1 x_3_3#56 +1 x_3_3#60 <= 3
 limit_11:  +1 x_3_2#49 +1 x_3_2#53 +1 x_3_3#57 +1 x_3_3#61 <= 3
 limit_10:  +1 x_3_2#50 +1 x_3_2#54 +1 x_3_3#58 +1 x_3_3#62 <= 12
 limit_9:  +1 x_3_2#51 +1 x_3_2#55 +1 x_3_3#59 +1 x_3_3#63 <= 12
 limit_8:  +1 x_2_1#64 +1 x_2_1#68 +1 x_2_2#72 +1 x_2_2#76 <= 3
 limit_7:  +1 x_2_1#65 +1 x_2_1#69 +1 x_2_2#73 +1 x_2_2#77 <= 3
 limit_6:  +1 x_2_1#66 +1 x_2_1#70 +1 x_2_2#74 +1 x_2_2#78 <= 12
 limit_5:  +1 x_2_1#67 +1 x_2_1#71 +1 x_2_2#75 +1 x_2_2#79 <= 12
 limit_4:  +1 x_1_1#80 +1 x_1_1#84 +1 x_1_3#88 +1 x_1_3#92 <= 3
 limit_3:  +1 x_1_1#81 +1 x_1_1#85 +1 x_1_3#89 +1 x_1_3#93 <= 3
 limit_2:  +1 x_1_1#82 +1 x_1_1#86 +1 x_1_3#90 +1 x_1_3#94 <= 12
 limit_1:  +1 x_1_1#83 +1 x_1_1#87 +1 x_1_3#91 +1 x_1_3#95 <= 12
Bounds
 0 <= x_6_3_#0 <= Inf
 0 <= x_6_3_#1 <= Inf
 0 <= x_6_3_#2 <= Inf
 0 <= x_6_3_#3 <= Inf
 0 <= x_6_3_#4 <= Inf
 0 <= x_6_3_#5 <= Inf
 0 <= x_6_3_#6 <= Inf
 0 <= x_6_3_#7 <= Inf
 0 <= x_6_2_#8 <= Inf
 0 <= x_6_2_#9 <= Inf
 0 <= x_6_2#10 <= Inf
 0 <= x_6_2#11 <= Inf
 0 <= x_6_2#12 <= Inf
 0 <= x_6_2#13 <= Inf
 0 <= x_6_2#14 <= Inf
 0 <= x_6_2#15 <= Inf
 0 <= x_5_2#16 <= Inf
 0 <= x_5_2#17 <= Inf
 0 <= x_5_2#18 <= Inf
 0 <= x_5_2#19 <= Inf
 0 <= x_5_2#20 <= Inf
 0 <= x_5_2#21 <= Inf
 0 <= x_5_2#22 <= Inf
 0 <= x_5_2#23 <= Inf
 0 <= x_5_1#24 <= Inf
 0 <= x_5_1#25 <= Inf
 0 <= x_5_1#26 <= Inf
 0 <= x_5_1#27 <= Inf
 0 <= x_5_1#28 <= Inf
 0 <= x_5_1#29 <= Inf
 0 <= x_5_1#30 <= Inf
 0 <= x_5_1#31 <= Inf
 0 <= x_4_3#32 <= Inf
 0 <= x_4_3#33 <= Inf
 0 <= x_4_3#34 <= Inf
 0 <= x_4_3#35 <= Inf
 0 <= x_4_3#36 <= Inf
 0 <= x_4_3#37 <= Inf
 0 <= x_4_3#38 <= Inf
 0 <= x_4_3#39 <= Inf
 0 <= x_4_2#40 <= Inf
 0 <= x_4_2#41 <= Inf
 0 <= x_4_2#42 <= Inf
 0 <= x_4_2#43 <= Inf
 0 <= x_4_2#44 <= Inf
 0 <= x_4_2#45 <= Inf
 0 <= x_4_2#46 <= Inf
 0 <= x_4_2#47 <= Inf
 0 <= x_3_2#48 <= Inf
 0 <= x_3_2#49 <= Inf
 0 <= x_3_2#50 <= Inf
 0 <= x_3_2#51 <= Inf
 0 <= x_3_2#52 <= Inf
 0 <= x_3_2#53 <= Inf
 0 <= x_3_2#54 <= Inf
 0 <= x_3_2#55 <= Inf
 0 <= x_3_3#56 <= Inf
 0 <= x_3_3#57 <= Inf
 0 <= x_3_3#58 <= Inf
 0 <= x_3_3#59 <= Inf
 0 <= x_3_3#60 <= Inf
 0 <= x_3_3#61 <= Inf
 0 <= x_3_3#62 <= Inf
 0 <= x_3_3#63 <= Inf
 0 <= x_2_1#64 <= Inf
 0 <= x_2_1#65 <= Inf
 0 <= x_2_1#66 <= Inf
 0 <= x_2_1#67 <= Inf
 0 <= x_2_1#68 <= Inf
 0 <= x_2_1#69 <= Inf
 0 <= x_2_1#70 <= Inf
 0 <= x_2_1#71 <= Inf
 0 <= x_2_2#72 <= Inf
 0 <= x_2_2#73 <= Inf
 0 <= x_2_2#74 <= Inf
 0 <= x_2_2#75 <= Inf
 0 <= x_2_2#76 <= Inf
 0 <= x_2_2#77 <= Inf
 0 <= x_2_2#78 <= Inf
 0 <= x_2_2#79 <= Inf
 0 <= x_1_1#80 <= Inf
 0 <= x_1_1#81 <= Inf
 0 <= x_1_1#82 <= Inf
 0 <= x_1_1#83 <= Inf
 0 <= x_1_1#84 <= Inf
 0 <= x_1_1#85 <= Inf
 0 <= x_1_1#86 <= Inf
 0 <= x_1_1#87 <= Inf
 0 <= x_1_3#88 <= Inf
 0 <= x_1_3#89 <= Inf
 0 <= x_1_3#90 <= Inf
 0 <= x_1_3#91 <= Inf
 0 <= x_1_3#92 <= Inf
 0 <= x_1_3#93 <= Inf
 0 <= x_1_3#94 <= Inf
 0 <= x_1_3#95 <= Inf
General
 x_6_3_#0
 x_6_3_#1
 x_6_3_#2
 x_6_3_#3
 x_6_3_#4
 x_6_3_#5
 x_6_3_#6
 x_6_3_#7
 x_6_2_#8
 x_6_2_#9
 x_6_2#10
 x_6_2#11
 x_6_2#12
 x_6_2#13
 x_6_2#14
 x_6_2#15
 x_5_2#16
 x_5_2#17
 x_5_2#18
 x_5_2#19
 x_5_2#20
 x_5_2#21
 x_5_2#22
 x_5_2#23
 x_5_1#24
 x_5_1#25
 x_5_1#26
 x_5_1#27
 x_5_1#28
 x_5_1#29
 x_5_1#30
 x_5_1#31
 x_4_3#32
 x_4_3#33
 x_4_3#34
 x_4_3#35
 x_4_3#36
 x_4_3#37
 x_4_3#38
 x_4_3#39
 x_4_2#40
 x_4_2#41
 x_4_2#42
 x_4_2#43
 x_4_2#44
 x_4_2#45
 x_4_2#46
 x_4_2#47
 x_3_2#48
 x_3_2#49
 x_3_2#50
 x_3_2#51
 x_3_2#52
 x_3_2#53
 x_3_2#54
 x_3_2#55
 x_3_3#56
 x_3_3#57
 x_3_3#58
 x_3_3#59
 x_3_3#60
 x_3_3#61
 x_3_3#62
 x_3_3#63
 x_2_1#64
 x_2_1#65
 x_2_1#66
 x_2_1#67
 x_2_1#68
 x_2_1#69
 x_2_1#70
 x_2_1#71
 x_2_2#72
 x_2_2#73
 x_2_2#74
 x_2_2#75
 x_2_2#76
 x_2_2#77
 x_2_2#78
 x_2_2#79
 x_1_1#80
 x_1_1#81
 x_1_1#82
 x_1_1#83
 x_1_1#84
 x_1_1#85
 x_1_1#86
 x_1_1#87
 x_1_3#88
 x_1_3#89
 x_1_3#90
 x_1_3#91
 x_1_3#92
 x_1_3#93
 x_1_3#94
 x_1_3#95
End
